Normalized Data/p04_23_normalized_split0.vrp
NAME:p04_23_NORMALIZED_split
BEST_KNOWN: 0
COMMENT: 0
DIMENSION: 641
CAPACITY: 100
EDGE_WEIGHT_FORMAT: FUNCTION
EDGE_WEIGHT_TYPE: EXACT_2D
NODE_COORD_SECTION
1 0.00000 0.00000
2 28 -27
3 28 -27
4 28 -27
5 -31 -36
6 -31 -36
7 -31 -36
8 -31 -36
9 -31 -36
10 6 42
11 6 42
12 50 -38
13 50 -38
14 50 -38
15 50 -38
16 50 -38
17 14 -12
18 14 -12
19 14 -12
20 14 -12
21 14 -12
22 14 -12
23 -46 -2
24 -46 -2
25 -46 -2
26 -46 -2
27 26 3
28 26 3
29 26 3
30 26 3
31 26 3
32 26 3
33 17 35
34 17 35
35 17 35
36 17 35
37 17 35
38 17 35
39 17 35
40 22 -2
41 22 -2
42 22 -2
43 22 -2
44 22 -2
45 22 -2
46 -46 -3
47 -46 -3
48 -46 -3
49 -46 -3
50 -46 -3
51 -40 -14
52 -40 -14
53 -40 -14
54 39 -16
55 39 -16
56 39 -16
57 19 -41
58 19 -41
59 -20 23
60 -20 23
61 -20 23
62 -15 11
63 -15 11
64 -15 11
65 -15 11
66 34 -28
67 11 38
68 11 38
69 11 38
70 11 38
71 11 38
72 11 38
73 33 12
74 33 12
75 -39 -18
76 -39 -18
77 -39 -18
78 -39 -18
79 -39 -18
80 -19 17
81 -19 17
82 -19 17
83 -19 17
84 -19 17
85 -32 -50
86 -32 -50
87 -32 -50
88 -32 -50
89 -32 -50
90 13 26
91 13 26
92 41 42
93 41 42
94 41 42
95 41 42
96 -21 -32
97 -21 -32
98 -21 -32
99 4 -14
100 4 -14
101 4 -14
102 4 -14
103 31 -8
104 31 -8
105 31 -8
106 31 -8
107 31 -8
108 31 -8
109 31 -8
110 -32 -19
111 -32 -19
112 -32 -19
113 30 39
114 30 39
115 30 39
116 30 39
117 30 39
118 40 26
119 40 26
120 40 26
121 40 26
122 40 26
123 -14 -39
124 -14 -39
125 -14 -39
126 -14 -39
127 -14 -39
128 -14 -39
129 -14 -39
130 50 -38
131 50 -38
132 50 -38
133 -12 -47
134 -12 -47
135 -12 -47
136 -12 -47
137 -12 -47
138 -12 -47
139 6 -4
140 6 -4
141 47 16
142 47 16
143 47 16
144 -31 9
145 -31 9
146 -31 9
147 8 -47
148 8 -47
149 8 -47
150 8 -47
151 41 48
152 41 48
153 41 48
154 41 48
155 -46 -28
156 -46 -28
157 -46 -28
158 -46 -28
159 -46 -28
160 27 -14
161 27 -14
162 27 -14
163 27 -14
164 27 -14
165 19 39
166 19 39
167 19 39
168 19 39
169 19 39
170 19 39
171 3 45
172 3 45
173 3 45
174 3 45
175 3 45
176 3 45
177 3 45
178 -8 28
179 -8 28
180 -8 28
181 -8 28
182 -8 28
183 -8 28
184 47 5
185 47 5
186 47 5
187 47 5
188 41 38
189 41 38
190 41 38
191 41 38
192 41 38
193 46 -28
194 46 -28
195 46 -28
196 46 -28
197 46 -28
198 6 30
199 6 30
200 6 30
201 6 30
202 6 30
203 6 30
204 -16 -33
205 -16 -33
206 -16 -33
207 -16 -33
208 -16 -33
209 -30 -16
210 -30 -16
211 -30 -16
212 -30 -16
213 -30 -16
214 -30 -16
215 11 37
216 11 37
217 11 37
218 11 37
219 18 47
220 18 47
221 0 18
222 0 18
223 0 18
224 0 18
225 0 18
226 0 -46
227 0 -46
228 0 -46
229 -20 8
230 -20 8
231 -20 8
232 -20 8
233 17 -1
234 17 -1
235 17 -1
236 17 -1
237 17 -1
238 17 -1
239 -38 -18
240 -38 -18
241 -38 -18
242 -38 -18
243 -38 -18
244 -38 -18
245 -38 -18
246 -33 -45
247 -33 -45
248 -33 -45
249 -33 -45
250 -13 -17
251 -13 -17
252 -13 -17
253 -13 -17
254 18 22
255 18 22
256 18 22
257 18 22
258 18 22
259 13 -39
260 13 -39
261 13 -39
262 13 -39
263 30 35
264 30 35
265 30 35
266 30 35
267 -26 -24
268 -26 -24
269 -26 -24
270 -26 -24
271 -26 -24
272 -26 -24
273 -26 -24
274 46 -1
275 46 -1
276 46 -1
277 46 -1
278 46 -1
279 46 -1
280 -45 49
281 -45 49
282 -45 49
283 -45 49
284 -45 49
285 -45 49
286 -45 49
287 -22 -36
288 -22 -36
289 -22 -36
290 -22 -36
291 -22 -36
292 44 -21
293 44 -21
294 44 -21
295 44 -21
296 39 -37
297 39 -37
298 -18 -4
299 -18 -4
300 -18 -4
301 -18 -4
302 -18 -4
303 -38 9
304 -38 9
305 -38 9
306 -38 9
307 -38 9
308 -38 9
309 -40 -30
310 -40 -30
311 -40 -30
312 -40 -30
313 -40 -30
314 -40 -30
315 8 34
316 8 34
317 -31 -35
318 -31 -35
319 -31 -35
320 -31 -35
321 -31 -35
322 18 -49
323 18 -49
324 48 10
325 48 10
326 48 10
327 48 10
328 48 10
329 48 10
330 18 -26
331 18 -26
332 18 -26
333 18 -26
334 18 -26
335 18 -26
336 22 17
337 22 17
338 22 17
339 22 17
340 22 17
341 -43 42
342 -43 42
343 -43 42
344 -43 42
345 40 -9
346 -11 -41
347 -11 -41
348 -11 -41
349 -11 -41
350 -11 -41
351 -30 9
352 -30 9
353 -30 9
354 -38 49
355 -38 49
356 -38 49
357 -38 49
358 13 2
359 13 2
360 13 2
361 13 2
362 13 2
363 17 -2
364 17 -2
365 17 -2
366 17 -2
367 8 -3
368 8 -3
369 8 -3
370 -21 -35
371 -21 -35
372 -21 -35
373 -21 -35
374 -21 -35
375 -21 -35
376 -21 -35
377 -39 37
378 -39 37
379 39 22
380 39 22
381 39 22
382 39 22
383 39 22
384 39 22
385 -9 -35
386 -9 -35
387 -9 -35
388 35 -26
389 35 -26
390 35 -26
391 18 -21
392 18 -21
393 -4 -7
394 -4 -7
395 -4 -7
396 -4 -7
397 -50 24
398 -50 24
399 -50 24
400 -50 24
401 -50 24
402 -50 24
403 39 25
404 39 25
405 39 25
406 39 25
407 39 25
408 39 25
409 39 25
410 -37 -26
411 -37 -26
412 -37 -26
413 -9 37
414 -9 37
415 -9 37
416 -9 37
417 -9 37
418 3 -50
419 3 -50
420 3 -50
421 3 -50
422 -10 6
423 -10 6
424 -10 6
425 -10 6
426 -10 6
427 21 -14
428 21 -14
429 21 -14
430 21 -14
431 -50 -12
432 -50 -12
433 -50 -12
434 -50 -12
435 -50 -12
436 -50 29
437 -50 29
438 -50 29
439 -50 29
440 21 35
441 21 35
442 30 50
443 30 50
444 30 50
445 30 50
446 30 50
447 26 -16
448 26 -16
449 26 -16
450 26 -16
451 10 -5
452 10 -5
453 -6 47
454 -6 47
455 -6 47
456 -6 47
457 -6 47
458 -26 10
459 -26 10
460 -26 10
461 -26 10
462 -26 10
463 29 12
464 29 12
465 29 12
466 -29 42
467 -29 42
468 -39 -43
469 -39 -43
470 -39 -43
471 47 -35
472 47 -35
473 36 15
474 36 15
475 12 -28
476 12 -28
477 20 42
478 20 42
479 20 42
480 -20 -49
481 -20 -49
482 -20 -49
483 -20 -49
484 -20 -49
485 -20 -49
486 3 -20
487 3 -20
488 -36 4
489 -36 4
490 -36 4
491 -14 -10
492 -14 -10
493 -14 -10
494 -14 -10
495 42 -2
496 42 -2
497 42 -2
498 42 -2
499 42 -2
500 16 2
501 16 2
502 16 2
503 16 2
504 16 2
505 -15 -42
506 -15 -42
507 -15 -42
508 -15 -42
509 -15 -42
510 -15 -42
511 45 25
512 45 25
513 45 25
514 45 25
515 -26 12
516 -26 12
517 -26 12
518 -26 12
519 -26 12
520 -11 20
521 -11 20
522 -11 20
523 -11 20
524 -11 20
525 -11 20
526 -37 -33
527 -37 -33
528 -37 -33
529 -37 -33
530 -43 40
531 -48 -21
532 -48 -21
533 -48 -21
534 -48 -21
535 -48 -21
536 -50 4
537 -50 4
538 -50 4
539 -50 4
540 -50 4
541 29 -35
542 29 -35
543 29 -35
544 -5 -48
545 -5 -48
546 -5 -48
547 -5 -48
548 -45 47
549 -45 47
550 -45 47
551 -45 47
552 -45 47
553 34 -34
554 34 -34
555 34 -34
556 34 -34
557 -19 31
558 -19 31
559 -19 31
560 27 35
561 27 35
562 27 35
563 27 35
564 27 35
565 27 35
566 45 26
567 45 26
568 45 26
569 45 26
570 45 26
571 37 39
572 37 39
573 37 39
574 37 39
575 37 39
576 37 39
577 37 39
578 16 14
579 16 14
580 16 14
581 16 14
582 16 14
583 16 14
584 45 -27
585 45 -27
586 45 -27
587 45 -27
588 45 -27
589 -16 -45
590 -16 -45
591 -16 -45
592 28 -6
593 28 -6
594 28 -6
595 -50 29
596 -50 29
597 -50 29
598 -50 29
599 -50 29
600 39 -9
601 39 -9
602 39 -9
603 39 -9
604 39 -9
605 39 -9
606 -11 36
607 -11 36
608 -10 -23
609 -10 -23
610 5 33
611 5 33
612 5 33
613 5 33
614 5 33
615 14 1
616 14 1
617 14 1
618 14 1
619 30 -31
620 30 -31
621 30 -31
622 30 -31
623 30 -31
624 10 10
625 -8 38
626 -8 38
627 -8 38
628 -8 38
629 1 40
630 1 40
631 1 40
632 1 40
633 1 40
634 48 20
635 48 20
636 48 20
637 48 20
638 -21 26
639 -21 26
640 -21 26
641 -21 26
DEMAND_SECTION
1 0
2 20
3 5
4 1
5 20
6 1
7 1
8 1
9 1
10 20
11 10
12 10
13 5
14 1
15 1
16 1
17 20
18 10
19 1
20 1
21 1
22 1
23 20
24 1
25 1
26 1
27 20
28 10
29 5
30 1
31 1
32 1
33 20
34 20
35 5
36 1
37 1
38 1
39 1
40 20
41 5
42 1
43 1
44 1
45 1
46 20
47 20
48 5
49 1
50 1
51 20
52 20
53 5
54 20
55 10
56 5
57 20
58 1
59 20
60 5
61 1
62 20
63 20
64 5
65 1
66 20
67 20
68 20
69 5
70 1
71 1
72 1
73 10
74 5
75 20
76 20
77 5
78 1
79 1
80 20
81 20
82 5
83 1
84 1
85 20
86 20
87 1
88 1
89 1
90 20
91 5
92 10
93 5
94 1
95 1
96 20
97 10
98 5
99 20
100 20
101 5
102 1
103 20
104 20
105 5
106 1
107 1
108 1
109 1
110 20
111 20
112 1
113 20
114 20
115 1
116 1
117 1
118 20
119 1
120 1
121 1
122 1
123 20
124 20
125 5
126 1
127 1
128 1
129 1
130 20
131 10
132 5
133 20
134 20
135 1
136 1
137 1
138 1
139 10
140 5
141 20
142 10
143 1
144 10
145 1
146 1
147 10
148 1
149 1
150 1
151 20
152 10
153 5
154 1
155 20
156 20
157 5
158 1
159 1
160 10
161 1
162 1
163 1
164 1
165 20
166 10
167 1
168 1
169 1
170 1
171 20
172 10
173 5
174 1
175 1
176 1
177 1
178 10
179 5
180 1
181 1
182 1
183 1
184 10
185 5
186 1
187 1
188 10
189 5
190 1
191 1
192 1
193 20
194 20
195 1
196 1
197 1
198 20
199 20
200 1
201 1
202 1
203 1
204 10
205 1
206 1
207 1
208 1
209 20
210 5
211 1
212 1
213 1
214 1
215 20
216 10
217 5
218 1
219 20
220 1
221 20
222 20
223 5
224 1
225 1
226 20
227 20
228 1
229 20
230 10
231 1
232 1
233 20
234 10
235 5
236 1
237 1
238 1
239 20
240 10
241 5
242 1
243 1
244 1
245 1
246 20
247 5
248 1
249 1
250 20
251 20
252 5
253 1
254 20
255 20
256 1
257 1
258 1
259 10
260 1
261 1
262 1
263 20
264 20
265 1
266 1
267 20
268 10
269 5
270 1
271 1
272 1
273 1
274 20
275 5
276 1
277 1
278 1
279 1
280 20
281 20
282 5
283 1
284 1
285 1
286 1
287 20
288 1
289 1
290 1
291 1
292 10
293 5
294 1
295 1
296 10
297 5
298 20
299 5
300 1
301 1
302 1
303 20
304 20
305 1
306 1
307 1
308 1
309 10
310 5
311 1
312 1
313 1
314 1
315 10
316 5
317 10
318 1
319 1
320 1
321 1
322 20
323 5
324 20
325 20
326 5
327 1
328 1
329 1
330 20
331 5
332 1
333 1
334 1
335 1
336 10
337 1
338 1
339 1
340 1
341 20
342 1
343 1
344 1
345 20
346 20
347 10
348 1
349 1
350 1
351 10
352 5
353 1
354 20
355 5
356 1
357 1
358 20
359 10
360 5
361 1
362 1
363 20
364 10
365 5
366 1
367 20
368 5
369 1
370 20
371 10
372 5
373 1
374 1
375 1
376 1
377 20
378 5
379 20
380 5
381 1
382 1
383 1
384 1
385 20
386 10
387 1
388 20
389 1
390 1
391 20
392 5
393 20
394 20
395 5
396 1
397 20
398 20
399 1
400 1
401 1
402 1
403 20
404 20
405 5
406 1
407 1
408 1
409 1
410 10
411 1
412 1
413 20
414 5
415 1
416 1
417 1
418 20
419 10
420 5
421 1
422 10
423 1
424 1
425 1
426 1
427 20
428 10
429 1
430 1
431 10
432 1
433 1
434 1
435 1
436 10
437 1
438 1
439 1
440 20
441 5
442 20
443 20
444 1
445 1
446 1
447 20
448 20
449 1
450 1
451 20
452 1
453 20
454 1
455 1
456 1
457 1
458 20
459 20
460 5
461 1
462 1
463 20
464 20
465 5
466 20
467 10
468 20
469 10
470 5
471 20
472 20
473 20
474 10
475 10
476 5
477 20
478 20
479 5
480 20
481 10
482 1
483 1
484 1
485 1
486 20
487 5
488 10
489 5
490 1
491 20
492 20
493 5
494 1
495 10
496 1
497 1
498 1
499 1
500 20
501 20
502 1
503 1
504 1
505 20
506 10
507 5
508 1
509 1
510 1
511 20
512 10
513 5
514 1
515 20
516 10
517 1
518 1
519 1
520 20
521 20
522 5
523 1
524 1
525 1
526 20
527 5
528 1
529 1
530 20
531 20
532 10
533 1
534 1
535 1
536 20
537 10
538 5
539 1
540 1
541 20
542 20
543 5
544 20
545 20
546 1
547 1
548 20
549 10
550 5
551 1
552 1
553 20
554 10
555 5
556 1
557 20
558 1
559 1
560 20
561 20
562 1
563 1
564 1
565 1
566 20
567 10
568 5
569 1
570 1
571 20
572 10
573 5
574 1
575 1
576 1
577 1
578 20
579 20
580 5
581 1
582 1
583 1
584 20
585 20
586 1
587 1
588 1
589 10
590 5
591 1
592 20
593 20
594 5
595 20
596 10
597 5
598 1
599 1
600 20
601 10
602 1
603 1
604 1
605 1
606 20
607 20
608 10
609 5
610 20
611 20
612 5
613 1
614 1
615 20
616 10
617 1
618 1
619 10
620 5
621 1
622 1
623 1
624 20
625 10
626 1
627 1
628 1
629 20
630 20
631 5
632 1
633 1
634 10
635 1
636 1
637 1
638 20
639 5
640 1
641 1
DEPOT_SECTION
1
-1
EOF