Normalized Data/p04_23_normalized_split0.sol
640 -3 2 1 618 619 620 622 621 65 387 389 388 162 160 161 159 163 -6 7 4 5 8 246 245 247 248 86 84 85 87 88 394 395 -19 21 16 426 428 429 427 449 446 448 447 -20 18 17 391 390 332 334 329 330 475 474 485 -26 72 73 472 463 464 462 -27 30 29 28 31 104 102 103 107 106 53 55 54 -45 46 23 24 25 22 535 536 538 537 539 -48 47 49 434 433 431 432 430 534 530 532 531 533 240 242 241 238 243 244 239 210 209 -51 52 50 75 74 76 77 78 -63 62 64 61 425 421 422 424 423 -79 80 82 83 81 58 60 59 639 637 638 640 -89 90 34 37 32 38 36 35 33 440 439 -97 95 96 288 289 287 286 290 373 369 372 371 374 370 375 -100 101 99 98 138 139 368 367 366 -108 105 604 600 601 603 602 599 344 274 277 278 273 276 275 496 498 495 497 494 -115 114 112 116 113 571 570 572 576 575 574 573 189 188 187 -134 133 136 132 137 135 483 484 480 481 482 479 588 589 590 -141 142 140 324 328 327 323 325 326 185 183 184 186 -144 145 401 400 397 396 398 399 598 437 438 435 594 436 596 595 597 518 517 -165 168 167 164 166 169 477 476 478 218 219 -176 170 172 174 175 171 173 454 456 452 453 455 626 624 625 627 412 -181 182 179 180 178 177 354 356 353 355 282 280 283 279 281 285 284 377 -191 190 91 93 92 94 153 150 151 152 443 441 444 442 445 -215 216 217 214 67 66 70 69 71 68 314 315 -222 223 224 220 221 520 524 521 519 522 523 -227 225 419 418 420 417 543 546 545 544 -229 230 352 350 351 143 305 307 306 302 303 304 488 487 489 -231 228 458 457 460 459 461 516 514 515 -234 235 237 232 236 233 364 362 365 363 450 451 -252 251 316 320 319 317 318 467 468 469 526 527 528 525 268 272 271 267 270 -253 255 256 257 254 579 582 577 578 580 581 -258 261 259 260 56 57 321 322 147 148 146 149 226 486 -269 266 311 310 309 312 313 308 155 154 156 158 157 409 411 410 -293 292 294 291 195 193 192 196 194 583 584 -300 297 299 301 298 211 208 212 213 110 111 109 492 493 -333 331 542 541 540 296 295 554 552 553 555 -339 335 337 338 336 265 264 263 262 559 561 563 560 564 562 -349 348 347 345 346 509 507 508 506 505 504 206 205 203 207 204 607 608 -357 359 39 44 41 42 40 43 593 591 592 -360 358 361 502 503 501 500 499 615 617 616 614 -376 529 342 341 340 343 551 549 550 548 547 -382 381 378 379 118 119 121 120 117 408 403 407 402 406 405 404 -383 380 565 569 566 567 568 513 510 512 511 636 634 633 635 473 -385 384 386 122 123 124 126 128 127 125 392 -393 249 250 490 491 -413 416 415 414 606 605 465 466 556 557 558 -471 470 131 11 129 15 130 13 12 14 587 586 585 -611 610 197 198 200 199 201 202 623 -613 609 612 10 9 632 631 629 628 630 0 





OBJ=
4438.726
BEST_KNOWN=
0.000